c description: Graph pigeonhole principle formula on fast_gnp_random_graph(20,10,0.5)
c generator: CNFgen (0.9.0)
c copyright: (C) 2012-2020 Massimo Lauria <massimo.lauria@uniroma1.it>
c url: https://massimolauria.net/cnfgen
c
p cnf 107 556
1 2 3 4 5 6 7 0
8 9 10 0
11 12 13 14 15 0
16 17 18 19 0
20 21 22 23 24 25 0
26 27 28 29 30 31 0
32 33 34 35 36 37 0
38 39 40 41 0
42 43 44 45 46 0
47 48 49 50 51 52 0
53 54 55 56 57 0
58 59 60 61 62 63 64 0
65 66 67 68 69 70 0
71 72 73 0
74 75 76 77 78 0
79 80 81 82 83 0
84 85 86 87 88 89 90 91 0
92 93 94 95 96 0
97 98 99 100 101 0
102 103 104 105 106 107 0
-1 -8 0
-1 -11 0
-1 -20 0
-1 -26 0
-1 -38 0
-1 -47 0
-1 -53 0
-1 -58 0
-1 -65 0
-1 -74 0
-1 -84 0
-1 -92 0
-1 -97 0
-8 -11 0
-8 -20 0
-8 -26 0
-8 -38 0
-8 -47 0
-8 -53 0
-8 -58 0
-8 -65 0
-8 -74 0
-8 -84 0
-8 -92 0
-8 -97 0
-11 -20 0
-11 -26 0
-11 -38 0
-11 -47 0
-11 -53 0
-11 -58 0
-11 -65 0
-11 -74 0
-11 -84 0
-11 -92 0
-11 -97 0
-20 -26 0
-20 -38 0
-20 -47 0
-20 -53 0
-20 -58 0
-20 -65 0
-20 -74 0
-20 -84 0
-20 -92 0
-20 -97 0
-26 -38 0
-26 -47 0
-26 -53 0
-26 -58 0
-26 -65 0
-26 -74 0
-26 -84 0
-26 -92 0
-26 -97 0
-38 -47 0
-38 -53 0
-38 -58 0
-38 -65 0
-38 -74 0
-38 -84 0
-38 -92 0
-38 -97 0
-47 -53 0
-47 -58 0
-47 -65 0
-47 -74 0
-47 -84 0
-47 -92 0
-47 -97 0
-53 -58 0
-53 -65 0
-53 -74 0
-53 -84 0
-53 -92 0
-53 -97 0
-58 -65 0
-58 -74 0
-58 -84 0
-58 -92 0
-58 -97 0
-65 -74 0
-65 -84 0
-65 -92 0
-65 -97 0
-74 -84 0
-74 -92 0
-74 -97 0
-84 -92 0
-84 -97 0
-92 -97 0
-2 -9 0
-2 -12 0
-2 -21 0
-2 -39 0
-2 -42 0
-2 -75 0
-2 -79 0
-2 -85 0
-2 -102 0
-9 -12 0
-9 -21 0
-9 -39 0
-9 -42 0
-9 -75 0
-9 -79 0
-9 -85 0
-9 -102 0
-12 -21 0
-12 -39 0
-12 -42 0
-12 -75 0
-12 -79 0
-12 -85 0
-12 -102 0
-21 -39 0
-21 -42 0
-21 -75 0
-21 -79 0
-21 -85 0
-21 -102 0
-39 -42 0
-39 -75 0
-39 -79 0
-39 -85 0
-39 -102 0
-42 -75 0
-42 -79 0
-42 -85 0
-42 -102 0
-75 -79 0
-75 -85 0
-75 -102 0
-79 -85 0
-79 -102 0
-85 -102 0
-3 -13 0
-3 -16 0
-3 -22 0
-3 -27 0
-3 -32 0
-3 -48 0
-3 -59 0
-3 -66 0
-3 -71 0
-3 -80 0
-3 -98 0
-3 -103 0
-13 -16 0
-13 -22 0
-13 -27 0
-13 -32 0
-13 -48 0
-13 -59 0
-13 -66 0
-13 -71 0
-13 -80 0
-13 -98 0
-13 -103 0
-16 -22 0
-16 -27 0
-16 -32 0
-16 -48 0
-16 -59 0
-16 -66 0
-16 -71 0
-16 -80 0
-16 -98 0
-16 -103 0
-22 -27 0
-22 -32 0
-22 -48 0
-22 -59 0
-22 -66 0
-22 -71 0
-22 -80 0
-22 -98 0
-22 -103 0
-27 -32 0
-27 -48 0
-27 -59 0
-27 -66 0
-27 -71 0
-27 -80 0
-27 -98 0
-27 -103 0
-32 -48 0
-32 -59 0
-32 -66 0
-32 -71 0
-32 -80 0
-32 -98 0
-32 -103 0
-48 -59 0
-48 -66 0
-48 -71 0
-48 -80 0
-48 -98 0
-48 -103 0
-59 -66 0
-59 -71 0
-59 -80 0
-59 -98 0
-59 -103 0
-66 -71 0
-66 -80 0
-66 -98 0
-66 -103 0
-71 -80 0
-71 -98 0
-71 -103 0
-80 -98 0
-80 -103 0
-98 -103 0
-4 -28 0
-4 -60 0
-4 -67 0
-4 -72 0
-4 -76 0
-4 -86 0
-4 -93 0
-4 -99 0
-4 -104 0
-28 -60 0
-28 -67 0
-28 -72 0
-28 -76 0
-28 -86 0
-28 -93 0
-28 -99 0
-28 -104 0
-60 -67 0
-60 -72 0
-60 -76 0
-60 -86 0
-60 -93 0
-60 -99 0
-60 -104 0
-67 -72 0
-67 -76 0
-67 -86 0
-67 -93 0
-67 -99 0
-67 -104 0
-72 -76 0
-72 -86 0
-72 -93 0
-72 -99 0
-72 -104 0
-76 -86 0
-76 -93 0
-76 -99 0
-76 -104 0
-86 -93 0
-86 -99 0
-86 -104 0
-93 -99 0
-93 -104 0
-99 -104 0
-5 -14 0
-5 -17 0
-5 -33 0
-5 -43 0
-5 -49 0
-5 -54 0
-5 -81 0
-5 -87 0
-5 -94 0
-14 -17 0
-14 -33 0
-14 -43 0
-14 -49 0
-14 -54 0
-14 -81 0
-14 -87 0
-14 -94 0
-17 -33 0
-17 -43 0
-17 -49 0
-17 -54 0
-17 -81 0
-17 -87 0
-17 -94 0
-33 -43 0
-33 -49 0
-33 -54 0
-33 -81 0
-33 -87 0
-33 -94 0
-43 -49 0
-43 -54 0
-43 -81 0
-43 -87 0
-43 -94 0
-49 -54 0
-49 -81 0
-49 -87 0
-49 -94 0
-54 -81 0
-54 -87 0
-54 -94 0
-81 -87 0
-81 -94 0
-87 -94 0
-18 -34 0
-18 -44 0
-18 -50 0
-18 -55 0
-18 -61 0
-18 -88 0
-18 -105 0
-34 -44 0
-34 -50 0
-34 -55 0
-34 -61 0
-34 -88 0
-34 -105 0
-44 -50 0
-44 -55 0
-44 -61 0
-44 -88 0
-44 -105 0
-50 -55 0
-50 -61 0
-50 -88 0
-50 -105 0
-55 -61 0
-55 -88 0
-55 -105 0
-61 -88 0
-61 -105 0
-88 -105 0
-23 -40 0
-23 -51 0
-23 -62 0
-23 -68 0
-23 -73 0
-23 -89 0
-23 -95 0
-40 -51 0
-40 -62 0
-40 -68 0
-40 -73 0
-40 -89 0
-40 -95 0
-51 -62 0
-51 -68 0
-51 -73 0
-51 -89 0
-51 -95 0
-62 -68 0
-62 -73 0
-62 -89 0
-62 -95 0
-68 -73 0
-68 -89 0
-68 -95 0
-73 -89 0
-73 -95 0
-89 -95 0
-6 -19 0
-6 -29 0
-6 -35 0
-6 -41 0
-6 -45 0
-6 -56 0
-6 -63 0
-6 -82 0
-6 -90 0
-6 -106 0
-19 -29 0
-19 -35 0
-19 -41 0
-19 -45 0
-19 -56 0
-19 -63 0
-19 -82 0
-19 -90 0
-19 -106 0
-29 -35 0
-29 -41 0
-29 -45 0
-29 -56 0
-29 -63 0
-29 -82 0
-29 -90 0
-29 -106 0
-35 -41 0
-35 -45 0
-35 -56 0
-35 -63 0
-35 -82 0
-35 -90 0
-35 -106 0
-41 -45 0
-41 -56 0
-41 -63 0
-41 -82 0
-41 -90 0
-41 -106 0
-45 -56 0
-45 -63 0
-45 -82 0
-45 -90 0
-45 -106 0
-56 -63 0
-56 -82 0
-56 -90 0
-56 -106 0
-63 -82 0
-63 -90 0
-63 -106 0
-82 -90 0
-82 -106 0
-90 -106 0
-7 -10 0
-7 -24 0
-7 -30 0
-7 -36 0
-7 -46 0
-7 -69 0
-7 -77 0
-7 -83 0
-7 -96 0
-7 -100 0
-7 -107 0
-10 -24 0
-10 -30 0
-10 -36 0
-10 -46 0
-10 -69 0
-10 -77 0
-10 -83 0
-10 -96 0
-10 -100 0
-10 -107 0
-24 -30 0
-24 -36 0
-24 -46 0
-24 -69 0
-24 -77 0
-24 -83 0
-24 -96 0
-24 -100 0
-24 -107 0
-30 -36 0
-30 -46 0
-30 -69 0
-30 -77 0
-30 -83 0
-30 -96 0
-30 -100 0
-30 -107 0
-36 -46 0
-36 -69 0
-36 -77 0
-36 -83 0
-36 -96 0
-36 -100 0
-36 -107 0
-46 -69 0
-46 -77 0
-46 -83 0
-46 -96 0
-46 -100 0
-46 -107 0
-69 -77 0
-69 -83 0
-69 -96 0
-69 -100 0
-69 -107 0
-77 -83 0
-77 -96 0
-77 -100 0
-77 -107 0
-83 -96 0
-83 -100 0
-83 -107 0
-96 -100 0
-96 -107 0
-100 -107 0
-15 -25 0
-15 -31 0
-15 -37 0
-15 -52 0
-15 -57 0
-15 -64 0
-15 -70 0
-15 -78 0
-15 -91 0
-15 -101 0
-25 -31 0
-25 -37 0
-25 -52 0
-25 -57 0
-25 -64 0
-25 -70 0
-25 -78 0
-25 -91 0
-25 -101 0
-31 -37 0
-31 -52 0
-31 -57 0
-31 -64 0
-31 -70 0
-31 -78 0
-31 -91 0
-31 -101 0
-37 -52 0
-37 -57 0
-37 -64 0
-37 -70 0
-37 -78 0
-37 -91 0
-37 -101 0
-52 -57 0
-52 -64 0
-52 -70 0
-52 -78 0
-52 -91 0
-52 -101 0
-57 -64 0
-57 -70 0
-57 -78 0
-57 -91 0
-57 -101 0
-64 -70 0
-64 -78 0
-64 -91 0
-64 -101 0
-70 -78 0
-70 -91 0
-70 -101 0
-78 -91 0
-78 -101 0
-91 -101 0